//geometry
Nx := 150
Ny := 150
Nz := 1
setgridsize(Ny, Nx, Nz)
c := 3e-9
R:= Nx*c/2

setcellsize(c, c, 5e-9)
setgeom(circle(Nx*c))
//setgeom(ImageShape("/home/martin/Mumax3_Flavio/Alex/Circle_500nm_notch.PNG"))

M1sat  := 740e3
Msat  = 740e3
Msaf  := 12e5
Aex   = 1.3e-11
alpha = 0.01
m = vortex(1, -1).Transl( 00.0e-9, 0.0, 0.0 )  

Bx := 0.0
Bz := 0.0
By := 0.00
B_ext = vector(Bx, By, Bz)
pol = 0.5
EpsilonPrime = 0.3

jdc := -0e9
A := 0.0008
f := 50e6
j = vector(0, 0, (jdc))

py := pow(1-pow((Bz/(4*3.142*1e-7*Msaf)),2),0.5)
pz := Bz/(4*3.142*1e-7*Msaf)
FixedLayer = vector(0,py,pz)
grainSize  := 40e-9  // m

randomSeed := 1
maxRegion  := 255
ext_makegrains(grainSize, maxRegion, randomSeed)
defregion(256, circle(Nx*c).inverse())
for i:=0; i<maxRegion; i++{
	axis1  := vector(0.1*i/256, 1 , 0.1*i/256)
	AnisC1.SetRegion(i, axis1)  
	Msat.SetRegion(i, 0.9*M1sat + M1sat*0.1*i/256)
	K := 0.0
	Kc1.SetRegion(i, K + i/256 * 0.1 * K)
}
for i:=0; i<maxRegion; i++{
	for j:=i+1; j<maxRegion; j++{
		ext_ScaleExchange(i, j, 0.9 )
	}
}

OutputFormat = OVF1_TEXT
mask := newVectorMask(Nx, Ny, 1)
for i:=0; i<Nx; i++{
	for j:=0; j<Ny; j++{
		r := index2coord(i, j, 0)
		x := r.X()
		y := r.Y()
		ralex := pow(pow(x,2)+pow(y,2),0.5)
		h := 0.5*ralex
		mask.setVector(i, j, 0, vector(h*y/ralex, -h*x/ralex, 0))
}}

SetSolver(3)

alpha = 0.01

Bymin := 0.02

B_ext = vector(0,0, 0)
//run(10e-9)

tableadd(ext_corepos)
tableadd(j)
tableadd(B_ext)
tableadd(E_demag)
tableadd(E_exch)
tableadd(E_Zeeman)
tableadd(E_total)
tableautosave(9.714396735962696e-11)
B_ext = vector(-0.00015271282539419776,0,0)
run(9.714396735962696e-11)
B_ext = vector(-0.000178371890907586,0,0)
run(9.714396735962696e-11)
B_ext = vector(-0.0001965815503041841,0,0)
run(9.714396735962696e-11)
B_ext = vector(-0.00022472375118983573,0,0)
run(9.714396735962696e-11)
B_ext = vector(-0.00023631171626039814,0,0)
run(9.714396735962696e-11)
B_ext = vector(-0.00023051773372511692,0,0)
run(9.714396735962696e-11)
B_ext = vector(-0.00021851591275917729,0,0)
run(9.714396735962696e-11)
B_ext = vector(-0.0001883044323966395,0,0)
run(9.714396735962696e-11)
B_ext = vector(-0.00016305922277862848,0,0)
run(9.714396735962696e-11)
B_ext = vector(-0.00012622604809005506,0,0)
run(9.714396735962696e-11)
B_ext = vector(-9.270372056449945e-05,0,0)
run(9.714396735962696e-11)
B_ext = vector(-3.641931879319621e-05,0,0)
run(9.714396735962696e-11)
B_ext = vector(4.138558953772297e-06,0,0)
run(9.714396735962696e-11)
B_ext = vector(5.131813102677648e-05,0,0)
run(9.714396735962696e-11)
B_ext = vector(7.656334064478749e-05,0,0)
run(9.714396735962696e-11)
B_ext = vector(0.00011132723585647479,0,0)
run(9.714396735962696e-11)
B_ext = vector(0.00013160617472995903,0,0)
run(9.714396735962696e-11)
B_ext = vector(0.00015974837561561067,0,0)
run(9.714396735962696e-11)
B_ext = vector(0.00016223151098787404,0,0)
run(9.714396735962696e-11)
B_ext = vector(0.00017050862889541864,0,0)
run(9.714396735962696e-11)
B_ext = vector(0.00016223151098787404,0,0)
run(9.714396735962696e-11)
B_ext = vector(0.0001522989694988205,0,0)
run(9.714396735962696e-11)
B_ext = vector(0.00013491702189297687,0,0)
run(9.714396735962696e-11)
B_ext = vector(0.00013657244547448578,0,0)
run(9.714396735962696e-11)
B_ext = vector(0.0001229152009270372,0,0)
run(9.714396735962696e-11)
B_ext = vector(0.00012374291271779168,0,0)
run(9.714396735962696e-11)
B_ext = vector(0.00012084592145015107,0,0)
run(9.714396735962696e-11)
B_ext = vector(0.0001311923188345818,0,0)
run(9.714396735962696e-11)
B_ext = vector(0.00014526341927740763,0,0)
run(9.714396735962696e-11)
B_ext = vector(0.00016637006994164633,0,0)
run(9.714396735962696e-11)
B_ext = vector(0.00017795803501220877,0,0)
run(9.714396735962696e-11)
B_ext = vector(0.00020030625336257916,0,0)
run(9.714396735962696e-11)
B_ext = vector(0.00020941108306087822,0,0)
run(9.714396735962696e-11)
B_ext = vector(0.0002317593014112486,0,0)
run(9.714396735962696e-11)
B_ext = vector(0.00023217315730662586,0,0)
run(9.714396735962696e-11)
B_ext = vector(0.00023341472499275754,0,0)
run(9.714396735962696e-11)
B_ext = vector(0.00021686048917766835,0,0)
run(9.714396735962696e-11)
B_ext = vector(0.0002052725241071059,0,0)
run(9.714396735962696e-11)
B_ext = vector(0.0001754748996399454,0,0)
run(9.714396735962696e-11)
B_ext = vector(0.00014857426644042545,0,0)
run(9.714396735962696e-11)
B_ext = vector(0.00010925795637958864,0,0)
run(9.714396735962696e-11)
B_ext = vector(6.249224020196168e-05,0,0)
run(9.714396735962696e-11)
B_ext = vector(3.35223275255556e-05,0,0)
run(9.714396735962696e-11)
B_ext = vector(4.138558953772297e-07,0,0)
run(9.714396735962696e-11)
B_ext = vector(-3.890245416545959e-05,0,0)
run(9.714396735962696e-11)
B_ext = vector(-6.663079915573398e-05,0,0)
run(9.714396735962696e-11)
B_ext = vector(-8.277117907544594e-05,0,0)
run(9.714396735962696e-11)
B_ext = vector(-0.00010677482100732525,0,0)
run(9.714396735962696e-11)
B_ext = vector(-0.00012250134503166,0,0)
run(9.714396735962696e-11)
B_ext = vector(-0.00014650498696353932,0,0)
run(9.714396735962696e-11)
B_ext = vector(-0.00016305922277862848,0,0)
run(9.714396735962696e-11)
B_ext = vector(-0.00017919960269834046,0,0)
run(9.714396735962696e-11)
B_ext = vector(-0.00019120142366428012,0,0)
run(9.714396735962696e-11)
B_ext = vector(-0.00021768820096842282,0,0)
run(9.714396735962696e-11)
B_ext = vector(-0.0002561767992385052,0,0)
run(9.714396735962696e-11)
B_ext = vector(-0.00029094069445019245,0,0)
run(9.714396735962696e-11)
B_ext = vector(-0.00032694615734801146,0,0)
run(9.714396735962696e-11)
B_ext = vector(-0.00036791789099035717,0,0)
run(9.714396735962696e-11)
B_ext = vector(-0.00039978479493440387,0,0)
run(9.714396735962696e-11)
B_ext = vector(-0.00042544386044779213,0,0)
run(9.714396735962696e-11)
B_ext = vector(-0.0004436535198443902,0,0)
run(9.714396735962696e-11)
B_ext = vector(-0.00046393245871787447,0,0)
run(9.714396735962696e-11)
B_ext = vector(-0.00046765716177626953,0,0)
run(9.714396735962696e-11)
B_ext = vector(-0.00045855233207797047,0,0)
run(9.714396735962696e-11)
B_ext = vector(-0.0004391011049952407,0,0)
run(9.714396735962696e-11)
B_ext = vector(-0.0004192360220171337,0,0)
run(9.714396735962696e-11)
B_ext = vector(-0.00037122873815337504,0,0)
run(9.714396735962696e-11)
B_ext = vector(-0.0003232214542896164,0,0)
run(9.714396735962696e-11)
B_ext = vector(-0.00024789968133096056,0,0)
run(9.714396735962696e-11)
B_ext = vector(-0.0001655423581508919,0,0)
run(9.714396735962696e-11)
B_ext = vector(-5.6698257666680464e-05,0,0)
run(9.714396735962696e-11)
B_ext = vector(4.386872490998635e-05,0,0)
run(9.714396735962696e-11)
B_ext = vector(0.0001494019782311799,0,0)
run(9.714396735962696e-11)
B_ext = vector(0.0002706617555767082,0,0)
run(9.714396735962696e-11)
B_ext = vector(0.00038778297396846424,0,0)
run(9.714396735962696e-11)
B_ext = vector(0.00047758970326532304,0,0)
run(9.714396735962696e-11)
B_ext = vector(0.0005591193146546373,0,0)
run(9.714396735962696e-11)
B_ext = vector(0.000610851301576791,0,0)
run(9.714396735962696e-11)
B_ext = vector(0.0006311302404502753,0,0)
run(9.714396735962696e-11)
B_ext = vector(0.0006373380788809337,0,0)
run(9.714396735962696e-11)
B_ext = vector(0.0006211976989612218,0,0)
run(9.714396735962696e-11)
B_ext = vector(0.0005731904150974631,0,0)
run(9.714396735962696e-11)
B_ext = vector(0.000488349956545131,0,0)
run(9.714396735962696e-11)
B_ext = vector(0.00039564623598063156,0,0)
run(9.714396735962696e-11)
B_ext = vector(0.000284732856019534,0,0)
run(9.714396735962696e-11)
B_ext = vector(0.00017671646732607708,0,0)
run(9.714396735962696e-11)
B_ext = vector(6.497537557422506e-05,0,0)
run(9.714396735962696e-11)
B_ext = vector(-3.47638952116873e-05,0,0)
run(9.714396735962696e-11)
B_ext = vector(-0.00013450316599759965,0,0)
run(9.714396735962696e-11)
B_ext = vector(-0.00021644663328229113,0,0)
run(9.714396735962696e-11)
B_ext = vector(-0.0002888714149733063,0,0)
run(9.714396735962696e-11)
B_ext = vector(-0.00033398170756942434,0,0)
run(9.714396735962696e-11)
B_ext = vector(-0.0003397756901047056,0,0)
run(9.714396735962696e-11)
B_ext = vector(-0.0002967346769854737,0,0)
run(9.714396735962696e-11)
B_ext = vector(-0.00022058519223606342,0,0)
run(9.714396735962696e-11)
B_ext = vector(-0.00010015312668128958,0,0)
run(9.714396735962696e-11)
B_ext = vector(5.71121135620577e-05,0,0)
run(9.714396735962696e-11)
B_ext = vector(0.00023465629267888923,0,0)
run(9.714396735962696e-11)
B_ext = vector(0.00040888962463270294,0,0)
run(9.714396735962696e-11)
B_ext = vector(0.0005698795679344453,0,0)
run(9.714396735962696e-11)
B_ext = vector(0.0006841037950585607,0,0)
run(9.714396735962696e-11)
B_ext = vector(0.0007292140876546787,0,0)
run(9.714396735962696e-11)
B_ext = vector(0.0007159706990026073,0,0)
run(9.714396735962696e-11)
B_ext = vector(0.0006423043496254604,0,0)
run(9.714396735962696e-11)
B_ext = vector(0.0005073873277324836,0,0)
run(9.714396735962696e-11)
B_ext = vector(0.00034474196084923234,0,0)
run(9.714396735962696e-11)
B_ext = vector(0.00013450316599759965,0,0)
run(9.714396735962696e-11)
B_ext = vector(-9.560071183214006e-05,0,0)
run(9.714396735962696e-11)
B_ext = vector(-0.00031411662459131733,0,0)
run(9.714396735962696e-11)
B_ext = vector(-0.0004813144063237181,0,0)
run(9.714396735962696e-11)
B_ext = vector(-0.0006183007076935812,0,0)
run(9.714396735962696e-11)
B_ext = vector(-0.0007052104457227993,0,0)
run(9.714396735962696e-11)
B_ext = vector(-0.0007594255680172165,0,0)
run(9.714396735962696e-11)
B_ext = vector(-0.0007428713322021273,0,0)
run(9.714396735962696e-11)
B_ext = vector(-0.0006650664238712081,0,0)
run(9.714396735962696e-11)
B_ext = vector(-0.000529735546082854,0,0)
run(9.714396735962696e-11)
B_ext = vector(-0.000387369118073087,0,0)
run(9.714396735962696e-11)
B_ext = vector(-0.00023382858088813477,0,0)
run(9.714396735962696e-11)
B_ext = vector(-6.53892314696023e-05,0,0)
run(9.714396735962696e-11)
B_ext = vector(0.00012125977734552829,0,0)
run(9.714396735962696e-11)
B_ext = vector(0.0002441749782725655,0,0)
run(9.714396735962696e-11)
B_ext = vector(0.00030708107436990445,0,0)
run(9.714396735962696e-11)
B_ext = vector(0.0002938376857178331,0,0)
run(9.714396735962696e-11)
B_ext = vector(0.0002681786202044448,0,0)
run(9.714396735962696e-11)
B_ext = vector(0.0002007201092579564,0,0)
run(9.714396735962696e-11)
B_ext = vector(0.00012457062450854612,0,0)
run(9.714396735962696e-11)
B_ext = vector(-2.64867773041427e-05,0,0)
run(9.714396735962696e-11)
B_ext = vector(-0.00021727434507304557,0,0)
run(9.714396735962696e-11)
B_ext = vector(-0.0003720564499441295,0,0)
run(9.714396735962696e-11)
B_ext = vector(-0.00048710838885899935,0,0)
run(9.714396735962696e-11)
B_ext = vector(-0.0007970864544965444,0,0)
run(9.714396735962696e-11)
B_ext = vector(-0.0011323097297521005,0,0)
run(9.714396735962696e-11)
B_ext = vector(-0.0012833671315647893,0,0)
run(9.714396735962696e-11)
B_ext = vector(-0.0013934527997351324,0,0)
run(9.714396735962696e-11)
B_ext = vector(-0.0014104208914455987,0,0)
run(9.714396735962696e-11)
B_ext = vector(-0.001257708066051401,0,0)
run(9.714396735962696e-11)
B_ext = vector(-0.0010391921532922237,0,0)
run(9.714396735962696e-11)
B_ext = vector(-0.0007805322186814552,0,0)
run(9.714396735962696e-11)
B_ext = vector(-0.0002669370525183131,0,0)
run(9.714396735962696e-11)
B_ext = vector(0.00027562802632123494,0,0)
run(9.714396735962696e-11)
B_ext = vector(0.0006841037950585607,0,0)
run(9.714396735962696e-11)
B_ext = vector(0.0010354674502338287,0,0)
run(9.714396735962696e-11)
B_ext = vector(0.0013975913586889046,0,0)
run(9.714396735962696e-11)
B_ext = vector(0.001627281380623267,0,0)
run(9.714396735962696e-11)
B_ext = vector(0.0017998592889955718,0,0)
run(9.714396735962696e-11)
B_ext = vector(0.0018404171667425404,0,0)
run(9.714396735962696e-11)
B_ext = vector(0.0016951537474651328,0,0)
run(9.714396735962696e-11)
B_ext = vector(0.0014427016512850227,0,0)
run(9.714396735962696e-11)
B_ext = vector(0.0012117700616645286,0,0)
run(9.714396735962696e-11)
B_ext = vector(0.0009295203410172579,0,0)
run(9.714396735962696e-11)
B_ext = vector(0.0005467036377933204,0,0)
run(9.714396735962696e-11)
B_ext = vector(0.00012125977734552829,0,0)
run(9.714396735962696e-11)
B_ext = vector(-0.0002462442577494517,0,0)
run(9.714396735962696e-11)
B_ext = vector(-0.0005127674543723876,0,0)
run(9.714396735962696e-11)
B_ext = vector(-0.0006874146422215785,0,0)
run(9.714396735962696e-11)
B_ext = vector(-0.0008099159872532385,0,0)
run(9.714396735962696e-11)
B_ext = vector(-0.0009026197078177379,0,0)
run(9.714396735962696e-11)
B_ext = vector(-0.0008922733104333072,0,0)
run(9.714396735962696e-11)
B_ext = vector(-0.0007143152754210985,0,0)
run(9.714396735962696e-11)
B_ext = vector(-0.0004568969084964616,0,0)
run(9.714396735962696e-11)
B_ext = vector(-0.0002412779870049249,0,0)
run(9.714396735962696e-11)
B_ext = vector(-3.3936183420932836e-05,0,0)
run(9.714396735962696e-11)
B_ext = vector(0.00016430079046476017,0,0)
run(9.714396735962696e-11)
B_ext = vector(0.0004030956420974217,0,0)
run(9.714396735962696e-11)
B_ext = vector(0.0005818813889003849,0,0)
run(9.714396735962696e-11)
B_ext = vector(0.0005996771924016058,0,0)
run(9.714396735962696e-11)
B_ext = vector(0.0005127674543723876,0,0)
run(9.714396735962696e-11)
B_ext = vector(0.00045979389976410215,0,0)
run(9.714396735962696e-11)
B_ext = vector(0.00042337458097090595,0,0)
run(9.714396735962696e-11)
B_ext = vector(0.0003795058560609196,0,0)
run(9.714396735962696e-11)
B_ext = vector(0.00029094069445019245,0,0)
run(9.714396735962696e-11)
B_ext = vector(0.0001605760874063651,0,0)
run(9.714396735962696e-11)
B_ext = vector(8.235732318006871e-05,0,0)
run(9.714396735962696e-11)
B_ext = vector(7.904647601705087e-05,0,0)
run(9.714396735962696e-11)
B_ext = vector(2.483135372263378e-06,0,0)
run(9.714396735962696e-11)
B_ext = vector(-0.0001353308777883541,0,0)
run(9.714396735962696e-11)
B_ext = vector(-0.00024210569879567936,0,0)
run(9.714396735962696e-11)
B_ext = vector(-0.00032736001324338865,0,0)
run(9.714396735962696e-11)
B_ext = vector(-0.0003517775110706452,0,0)
run(9.714396735962696e-11)
B_ext = vector(-0.00032984314861565203,0,0)
run(9.714396735962696e-11)
B_ext = vector(-0.0003360509870463105,0,0)
run(9.714396735962696e-11)
B_ext = vector(-0.0003319124280925382,0,0)
run(9.714396735962696e-11)
B_ext = vector(-0.00021561892149153666,0,0)
run(9.714396735962696e-11)
B_ext = vector(-0.00010636096511194803,0,0)
run(9.714396735962696e-11)
B_ext = vector(-3.3936183420932836e-05,0,0)
run(9.714396735962696e-11)
B_ext = vector(7.863262012167363e-06,0,0)
run(9.714396735962696e-11)
B_ext = vector(7.656334064478749e-05,0,0)
run(9.714396735962696e-11)
B_ext = vector(9.435914414600837e-05,0,0)
run(9.714396735962696e-11)
B_ext = vector(0.0001390555808467492,0,0)
run(9.714396735962696e-11)
B_ext = vector(0.00015436824897570667,0,0)
run(9.714396735962696e-11)
B_ext = vector(0.0001560236725572156,0,0)
run(9.714396735962696e-11)
B_ext = vector(0.00010387782973968466,0,0)
run(9.714396735962696e-11)
B_ext = vector(6.911393452799736e-05,0,0)
run(9.714396735962696e-11)
B_ext = vector(1.738194760584365e-05,0,0)
run(9.714396735962696e-11)
B_ext = vector(-6.70446550511112e-05,0,0)
run(9.714396735962696e-11)
B_ext = vector(-0.0001336754542068452,0,0)
run(9.714396735962696e-11)
B_ext = vector(-0.00022762074245747632,0,0)
run(9.714396735962696e-11)
B_ext = vector(-0.0003025286595207549,0,0)
run(9.714396735962696e-11)
B_ext = vector(-0.00034929437569838185,0,0)
run(9.714396735962696e-11)
B_ext = vector(-0.00036336547614120767,0,0)
run(9.714396735962696e-11)
B_ext = vector(-0.00044820593469353977,0,0)
run(9.714396735962696e-11)
B_ext = vector(-0.0006170591400074494,0,0)
run(9.714396735962696e-11)
B_ext = vector(-0.0009543516947398917,0,0)
run(9.714396735962696e-11)
B_ext = vector(-0.0012204610354674503,0,0)
run(9.714396735962696e-11)
B_ext = vector(-0.0013591027604188224,0,0)
run(9.714396735962696e-11)
B_ext = vector(-0.0015105740181268884,0,0)
run(9.714396735962696e-11)
B_ext = vector(-0.0016475603194967513,0,0)
run(9.714396735962696e-11)
B_ext = vector(-0.0015842403675040352,0,0)
run(9.714396735962696e-11)
B_ext = vector(-0.0013367545420684519,0,0)
run(9.714396735962696e-11)
B_ext = vector(-0.0009733890659272442,0,0)
run(9.714396735962696e-11)
B_ext = vector(-0.00047924512684683197,0,0)
run(9.714396735962696e-11)
B_ext = vector(2.483135372263378e-06,0,0)
run(9.714396735962696e-11)
B_ext = vector(0.0004138558953772297,0,0)
run(9.714396735962696e-11)
B_ext = vector(0.0008931010222240617,0,0)
run(9.714396735962696e-11)
B_ext = vector(0.0013818648346645699,0,0)
run(9.714396735962696e-11)
B_ext = vector(0.001704672433058809,0,0)
run(9.714396735962696e-11)
B_ext = vector(0.0018975292803045981,0,0)
run(9.714396735962696e-11)
B_ext = vector(0.0019993378305673964,0,0)
run(9.714396735962696e-11)
B_ext = vector(0.0019178082191780824,0,0)
run(9.714396735962696e-11)
B_ext = vector(0.0017754417911683153,0,0)
run(9.714396735962696e-11)
B_ext = vector(0.0015987253238422382,0,0)
run(9.714396735962696e-11)
B_ext = vector(0.0012701237429127178,0,0)
run(9.714396735962696e-11)
B_ext = vector(0.0008285395025452139,0,0)
run(9.714396735962696e-11)
B_ext = vector(0.0004734511443115508,0,0)
run(9.714396735962696e-11)
B_ext = vector(0.0001771303232214543,0,0)
run(9.714396735962696e-11)
B_ext = vector(-6.621694326035675e-05,0,0)
run(9.714396735962696e-11)
B_ext = vector(-0.00027521417042585775,0,0)
run(9.714396735962696e-11)
B_ext = vector(-0.00047841741505607753,0,0)
run(9.714396735962696e-11)
B_ext = vector(-0.0006274055373918802,0,0)
run(9.714396735962696e-11)
B_ext = vector(-0.0005818813889003849,0,0)
run(9.714396735962696e-11)
B_ext = vector(-0.00045399991722882096,0,0)
run(9.714396735962696e-11)
B_ext = vector(-0.0003832305591193147,0,0)
run(9.714396735962696e-11)
B_ext = vector(-0.00025741836692463687,0,0)
run(9.714396735962696e-11)
B_ext = vector(-6.373380788809337e-05,0,0)
run(9.714396735962696e-11)
B_ext = vector(0.00010884410048421141,0,0)
run(9.714396735962696e-11)
B_ext = vector(0.0002888714149733063,0,0)
run(9.714396735962696e-11)
B_ext = vector(0.00034929437569838185,0,0)
run(9.714396735962696e-11)
B_ext = vector(0.00020030625336257916,0,0)
run(9.714396735962696e-11)
B_ext = vector(0.00013781401316061747,0,0)
run(9.714396735962696e-11)
B_ext = vector(0.00018954600008277118,0,0)
run(9.714396735962696e-11)
B_ext = vector(0.00016098994330174235,0,0)
run(9.714396735962696e-11)
B_ext = vector(8.608202623846377e-05,0,0)
run(9.714396735962696e-11)
B_ext = vector(8.566817034308654e-05,0,0)
run(9.714396735962696e-11)
B_ext = vector(7.94603319124281e-05,0,0)
run(9.714396735962696e-11)
B_ext = vector(0.00012208748913628275,0,0)
run(9.714396735962696e-11)
B_ext = vector(0.00017092248479079586,0,0)
run(9.714396735962696e-11)
B_ext = vector(0.00010553325332119356,0,0)
run(9.714396735962696e-11)
B_ext = vector(-1.5726524024334726e-05,0,0)
run(9.714396735962696e-11)
B_ext = vector(-5.918139303894385e-05,0,0)
run(9.714396735962696e-11)
B_ext = vector(-9.76699913090262e-05,0,0)
run(9.714396735962696e-11)
B_ext = vector(-0.00017464718784919092,0,0)
run(9.714396735962696e-11)
B_ext = vector(-0.0002230683276083268,0,0)
run(9.714396735962696e-11)
B_ext = vector(-0.0002735587468443488,0,0)
run(9.714396735962696e-11)
B_ext = vector(-0.00031949675123122133,0,0)
run(9.714396735962696e-11)
B_ext = vector(-0.00030335637131150933,0,0)
run(9.714396735962696e-11)
B_ext = vector(-0.000264867773041427,0,0)
run(9.714396735962696e-11)
B_ext = vector(-0.0002760418822166122,0,0)
run(9.714396735962696e-11)
B_ext = vector(-0.0002872159913917974,0,0)
run(9.714396735962696e-11)
B_ext = vector(-0.00025203824028473287,0,0)
run(9.714396735962696e-11)
B_ext = vector(-0.00028638827960104294,0,0)
run(9.714396735962696e-11)
B_ext = vector(-0.0002855605678102885,0,0)
run(9.714396735962696e-11)
B_ext = vector(-0.00022224061581757235,0,0)
run(9.714396735962696e-11)
B_ext = vector(-0.00017092248479079586,0,0)
run(9.714396735962696e-11)
B_ext = vector(-0.00017133634068617308,0,0)
run(9.714396735962696e-11)
B_ext = vector(-6.497537557422506e-05,0,0)
run(9.714396735962696e-11)
B_ext = vector(-7.035550221412905e-06,0,0)
run(9.714396735962696e-11)
B_ext = vector(6.083681662045276e-05,0,0)
run(9.714396735962696e-11)
B_ext = vector(7.035550221412905e-05,0,0)
run(9.714396735962696e-11)
B_ext = vector(8.194346728469148e-05,0,0)
run(9.714396735962696e-11)
B_ext = vector(2.690063319951993e-05,0,0)
run(9.714396735962696e-11)
B_ext = vector(-1.1587965070562431e-05,0,0)
run(9.714396735962696e-11)
B_ext = vector(-0.00011381037122873816,0,0)
run(9.714396735962696e-11)
B_ext = vector(-0.0002772834499027439,0,0)
run(9.714396735962696e-11)
B_ext = vector(-0.0005475313495840749,0,0)
run(9.714396735962696e-11)
B_ext = vector(-0.0009382113148201797,0,0)
run(9.714396735962696e-11)
B_ext = vector(-0.0012548110747837603,0,0)
run(9.714396735962696e-11)
B_ext = vector(-0.0014985721971609487,0,0)
run(9.714396735962696e-11)
B_ext = vector(-0.0017092248479079585,0,0)
run(9.714396735962696e-11)
B_ext = vector(-0.0018950461449323346,0,0)
run(9.714396735962696e-11)
B_ext = vector(-0.0018693870794189464,0,0)
run(9.714396735962696e-11)
B_ext = vector(-0.0017121218391755993,0,0)
run(9.714396735962696e-11)
B_ext = vector(-0.0013462732276621281,0,0)
run(9.714396735962696e-11)
B_ext = vector(-0.0008562678475354883,0,0)
run(9.714396735962696e-11)
B_ext = vector(-0.00028928527086868357,0,0)
run(9.714396735962696e-11)
B_ext = vector(0.00025741836692463687,0,0)
run(9.714396735962696e-11)
B_ext = vector(0.0009377974589248024,0,0)
run(9.714396735962696e-11)
B_ext = vector(0.0015618921491536647,0,0)
run(9.714396735962696e-11)
B_ext = vector(0.002077142738898316,0,0)
run(9.714396735962696e-11)
B_ext = vector(0.0024045027521417046,0,0)
run(9.714396735962696e-11)
B_ext = vector(0.0026114306998303192,0,0)
run(9.714396735962696e-11)
B_ext = vector(0.002612672267516451,0,0)
run(9.714396735962696e-11)
B_ext = vector(0.002571700533874105,0,0)
run(9.714396735962696e-11)
B_ext = vector(0.002402433472664818,0,0)
run(9.714396735962696e-11)
B_ext = vector(0.002030790878616066,0,0)
run(9.714396735962696e-11)
B_ext = vector(0.0015308529570003727,0,0)
run(9.714396735962696e-11)
B_ext = vector(0.0011033398170756943,0,0)
run(9.714396735962696e-11)
B_ext = vector(0.0006687911269296032,0,0)
run(9.714396735962696e-11)
B_ext = vector(0.00024458883416794274,0,0)
run(9.714396735962696e-11)
B_ext = vector(-0.00019492612672267518,0,0)
run(9.714396735962696e-11)
B_ext = vector(-0.000609195877995282,0,0)
run(9.714396735962696e-11)
B_ext = vector(-0.0008786160658858587,0,0)
run(9.714396735962696e-11)
B_ext = vector(-0.0008988950047593429,0,0)
run(9.714396735962696e-11)
B_ext = vector(-0.0008910317427471755,0,0)
run(9.714396735962696e-11)
B_ext = vector(-0.0009059305549807558,0,0)
run(9.714396735962696e-11)
B_ext = vector(-0.0008194346728469148,0,0)
run(9.714396735962696e-11)
B_ext = vector(-0.0006013326159831148,0,0)
run(9.714396735962696e-11)
B_ext = vector(-0.0003356371311509333,0,0)
run(9.714396735962696e-11)
B_ext = vector(-6.745851094648844e-05,0,0)
run(9.714396735962696e-11)
B_ext = vector(3.1866903944046686e-05,0,0)
run(9.714396735962696e-11)
B_ext = vector(1.8623515291975337e-05,0,0)
run(9.714396735962696e-11)
B_ext = vector(8.566817034308654e-05,0,0)
run(9.714396735962696e-11)
B_ext = vector(0.00022637917477134464,0,0)
run(9.714396735962696e-11)
B_ext = vector(0.00023507014857426645,0,0)
run(9.714396735962696e-11)
B_ext = vector(0.00014526341927740763,0,0)
run(9.714396735962696e-11)
B_ext = vector(0.00010263626205355295,0,0)
run(9.714396735962696e-11)
B_ext = vector(0.00019120142366428012,0,0)
run(9.714396735962696e-11)
B_ext = vector(0.00024914124901709224,0,0)
run(9.714396735962696e-11)
B_ext = vector(0.00020278938873484253,0,0)
run(9.714396735962696e-11)
B_ext = vector(3.0625336257915e-05,0,0)
run(9.714396735962696e-11)
B_ext = vector(-0.00010098083847204405,0,0)
run(9.714396735962696e-11)
B_ext = vector(-0.0002201713363406862,0,0)
run(9.714396735962696e-11)
B_ext = vector(-0.0003199106071265985,0,0)
run(9.714396735962696e-11)
B_ext = vector(-0.00043537640193684564,0,0)
run(9.714396735962696e-11)
B_ext = vector(-0.0005417373670487936,0,0)
run(9.714396735962696e-11)
B_ext = vector(-0.0005905723627033068,0,0)
run(9.714396735962696e-11)
B_ext = vector(-0.000554980755700865,0,0)
run(9.714396735962696e-11)
B_ext = vector(-0.0004726234325207963,0,0)
run(9.714396735962696e-11)
B_ext = vector(-0.00042171915738939707,0,0)
run(9.714396735962696e-11)
B_ext = vector(-0.0003385341224185739,0,0)
run(9.714396735962696e-11)
B_ext = vector(-0.00024251955469105658,0,0)
run(9.714396735962696e-11)
B_ext = vector(-0.0001572652402433473,0,0)
run(9.714396735962696e-11)
B_ext = vector(-8.608202623846377e-05,0,0)
run(9.714396735962696e-11)
B_ext = vector(-9.518685593676282e-06,0,0)
run(9.714396735962696e-11)
B_ext = vector(2.483135372263378e-06,0,0)
run(9.714396735962696e-11)
B_ext = vector(3.890245416545959e-05,0,0)
run(9.714396735962696e-11)
B_ext = vector(0.0001018085502627985,0,0)
run(9.714396735962696e-11)
B_ext = vector(0.0002023755328394653,0,0)
run(9.714396735962696e-11)
B_ext = vector(0.00012912303935769565,0,0)
run(9.714396735962696e-11)
B_ext = vector(0.0001018085502627985,0,0)
run(9.714396735962696e-11)
B_ext = vector(7.159706990026074e-05,0,0)
run(9.714396735962696e-11)
B_ext = vector(2.4003641931879323e-05,0,0)
run(9.714396735962696e-11)
B_ext = vector(-3.931631006083682e-05,0,0)
run(9.714396735962696e-11)
B_ext = vector(-9.808384720440344e-05,0,0)
run(9.714396735962696e-11)
B_ext = vector(-0.00027107561147208544,0,0)
run(9.714396735962696e-11)
B_ext = vector(-0.0003666763233042255,0,0)
run(9.714396735962696e-11)
B_ext = vector(-0.00042171915738939707,0,0)
run(9.714396735962696e-11)
B_ext = vector(-0.000704382733932045,0,0)
run(9.714396735962696e-11)
B_ext = vector(-0.0011178247734138973,0,0)
run(9.714396735962696e-11)
B_ext = vector(-0.0013822786905599471,0,0)
run(9.714396735962696e-11)
B_ext = vector(-0.0015420270661755577,0,0)
run(9.714396735962696e-11)
B_ext = vector(-0.0016889459090344743,0,0)
run(9.714396735962696e-11)
B_ext = vector(-0.001690187476720606,0,0)
run(9.714396735962696e-11)
B_ext = vector(-0.001648801887182883,0,0)
run(9.714396735962696e-11)
B_ext = vector(-0.001452220336878699,0,0)
run(9.714396735962696e-11)
B_ext = vector(-0.0010300873235939247,0,0)
run(9.714396735962696e-11)
B_ext = vector(-0.0005024210569879569,0,0)
run(9.714396735962696e-11)
B_ext = vector(-7.780490833091918e-05,0,0)
run(9.714396735962696e-11)
B_ext = vector(0.0004279269958200555,0,0)
run(9.714396735962696e-11)
B_ext = vector(0.001025121052849398,0,0)
run(9.714396735962696e-11)
B_ext = vector(0.0015809295203410175,0,0)
run(9.714396735962696e-11)
B_ext = vector(0.0019778173240077804,0,0)
run(9.714396735962696e-11)
B_ext = vector(0.0022588254769689196,0,0)
run(9.714396735962696e-11)
B_ext = vector(0.00237677440715143,0,0)
run(9.714396735962696e-11)
B_ext = vector(0.002421470843852171,0,0)
run(9.714396735962696e-11)
B_ext = vector(0.002362289450813227,0,0)
run(9.714396735962696e-11)
B_ext = vector(0.00215122294417084,0,0)
run(9.714396735962696e-11)
B_ext = vector(0.001836278607788768,0,0)
run(9.714396735962696e-11)
B_ext = vector(0.0015060216032777387,0,0)
run(9.714396735962696e-11)
B_ext = vector(0.0011323097297521005,0,0)
run(9.714396735962696e-11)
B_ext = vector(0.0007246616728055292,0,0)
run(9.714396735962696e-11)
B_ext = vector(0.0002979762446716054,0,0)
run(9.714396735962696e-11)
B_ext = vector(-6.456151967884783e-05,0,0)
run(9.714396735962696e-11)
B_ext = vector(-0.0003530190787567769,0,0)
run(9.714396735962696e-11)
B_ext = vector(-0.0005462897818979431,0,0)
run(9.714396735962696e-11)
B_ext = vector(-0.0007234201051193975,0,0)
run(9.714396735962696e-11)
B_ext = vector(-0.0007941894632289037,0,0)
run(9.714396735962696e-11)
B_ext = vector(-0.0007987418780780532,0,0)
run(9.714396735962696e-11)
B_ext = vector(-0.000704382733932045,0,0)
run(9.714396735962696e-11)
B_ext = vector(-0.0005793982535281215,0,0)
run(9.714396735962696e-11)
B_ext = vector(-0.0003985432272482722,0,0)
run(9.714396735962696e-11)
B_ext = vector(-0.00028969912676406076,0,0)
run(9.714396735962696e-11)
B_ext = vector(-0.00014029714853288088,0,0)
run(9.714396735962696e-11)
B_ext = vector(-4.6351860282249725e-05,0,0)
run(9.714396735962696e-11)
B_ext = vector(-1.365724454744858e-05,0,0)
run(9.714396735962696e-11)
B_ext = vector(-7.366634937714688e-05,0,0)
run(9.714396735962696e-11)
B_ext = vector(-5.793982535281215e-05,0,0)
run(9.714396735962696e-11)
B_ext = vector(-1.8209659396598106e-05,0,0)
run(9.714396735962696e-11)
B_ext = vector(6.95277904233746e-05,0,0)
run(9.714396735962696e-11)
B_ext = vector(0.0001253983362993006,0,0)
run(9.714396735962696e-11)
B_ext = vector(0.00015560981666183835,0,0)
run(9.714396735962696e-11)
B_ext = vector(0.00012788147167156397,0,0)
run(9.714396735962696e-11)
B_ext = vector(0.0001605760874063651,0,0)
run(9.714396735962696e-11)
B_ext = vector(0.00014195257211438978,0,0)
run(9.714396735962696e-11)
B_ext = vector(1.4898812233580269e-05,0,0)
run(9.714396735962696e-11)
B_ext = vector(-0.00016926706120928695,0,0)
run(9.714396735962696e-11)